NAME: random-78-29887
TYPE: TSP
COMMENT: size=78 seed=29887
DIMENSION: 158
EDGE_WEIGHT_TYPE: EUC_2D
NODE_COORD_SECTION
+0 809 506
-0 809 506
+1 376 296
-1 846 803
+2 307 938
-2 13 974
+3 159 903
-3 210 504
+4 523 813
-4 107 785
+5 142 228
-5 389 130
+6 737 615
-6 857 265
+7 288 613
-7 757 649
+8 723 383
-8 117 48
+9 544 81
-9 80 281
+10 928 909
-10 685 827
+11 458 531
-11 817 390
+12 28 838
-12 411 492
+13 414 576
-13 677 158
+14 608 136
-14 179 891
+15 475 276
-15 753 790
+16 398 950
-16 361 879
+17 961 583
-17 618 587
+18 438 314
-18 951 658
+19 300 520
-19 902 110
+20 225 716
-20 245 362
+21 576 660
-21 194 388
+22 147 594
-22 813 816
+23 905 354
-23 122 941
+24 287 869
-24 803 870
+25 861 991
-25 376 573
+26 201 551
-26 292 550
+27 247 842
-27 39 389
+28 437 438
-28 167 924
+29 176 287
-29 696 438
+30 427 777
-30 295 589
+31 824 158
-31 821 120
+32 640 264
-32 231 19
+33 763 863
-33 419 438
+34 520 921
-34 974 850
+35 838 659
-35 819 290
+36 356 978
-36 694 972
+37 0 122
-37 568 498
+38 663 363
-38 671 319
+39 154 912
-39 769 115
+40 772 189
-40 286 112
+41 450 22
-41 478 760
+42 543 497
-42 222 35
+43 143 597
-43 47 384
+44 589 447
-44 919 260
+45 933 980
-45 392 25
+46 764 344
-46 382 887
+47 276 524
-47 380 329
+48 824 807
-48 292 353
+49 103 987
-49 163 215
+50 51 723
-50 772 224
+51 477 943
-51 903 293
+52 526 161
-52 819 730
+53 78 847
-53 781 121
+54 339 347
-54 958 585
+55 585 486
-55 556 956
+56 995 782
-56 0 149
+57 464 422
-57 398 167
+58 746 288
-58 712 700
+59 682 795
-59 99 596
+60 945 711
-60 854 946
+61 470 587
-61 192 66
+62 442 857
-62 629 84
+63 585 500
-63 704 915
+64 202 64
-64 299 712
+65 664 176
-65 208 686
+66 72 849
-66 921 466
+67 685 275
-67 500 282
+68 203 310
-68 426 803
+69 730 179
-69 828 546
+70 53 758
-70 147 844
+71 830 94
-71 10 2
+72 872 971
-72 604 465
+73 189 226
-73 782 470
+74 272 671
-74 288 921
+75 235 247
-75 987 285
+76 958 762
-76 942 826
+77 187 203
-77 355 543
+78 621 181
-78 642 472
PRECEDENCE_SECTION
+0 -0
+1 -1
+2 -2
+3 -3
+4 -4
+5 -5
+6 -6
+7 -7
+8 -8
+9 -9
+10 -10
+11 -11
+12 -12
+13 -13
+14 -14
+15 -15
+16 -16
+17 -17
+18 -18
+19 -19
+20 -20
+21 -21
+22 -22
+23 -23
+24 -24
+25 -25
+26 -26
+27 -27
+28 -28
+29 -29
+30 -30
+31 -31
+32 -32
+33 -33
+34 -34
+35 -35
+36 -36
+37 -37
+38 -38
+39 -39
+40 -40
+41 -41
+42 -42
+43 -43
+44 -44
+45 -45
+46 -46
+47 -47
+48 -48
+49 -49
+50 -50
+51 -51
+52 -52
+53 -53
+54 -54
+55 -55
+56 -56
+57 -57
+58 -58
+59 -59
+60 -60
+61 -61
+62 -62
+63 -63
+64 -64
+65 -65
+66 -66
+67 -67
+68 -68
+69 -69
+70 -70
+71 -71
+72 -72
+73 -73
+74 -74
+75 -75
+76 -76
+77 -77
+78 -78
EOF
